NAME : problems/40-tsp/instance-13.tsp
COMMENT : No Comment
TYPE : TSP
DIMENSION: 40
EDGE_WEIGHT_TYPE : EUC_2D
NODE_COORD_SECTION
1 2951 4355 
2 5461 8730 
3 1768 9804 
4 7926 8731 
5 8343 3208 
6 5196 1779 
7 9611 9277 
8 8171 8302 
9 6942 7684 
10 8630 3135 
11 3004 1689 
12 3443 820 
13 4721 1455 
14 9790 8385 
15 9501 6024 
16 3489 3745 
17 3473 7064 
18 2228 2567 
19 4507 7659 
20 8162 9690 
21 6857 5856 
22 3181 6317 
23 1135 8121 
24 6797 2798 
25 4630 1041 
26 9861 7832 
27 9443 5968 
28 4582 2732 
29 1653 7981 
30 8423 9513 
31 3348 4300 
32 6735 6893 
33 2121 8692 
34 1692 8176 
35 1339 1615 
36 5165 3206 
37 9142 7069 
38 2793 5855 
39 6367 931 
40 2821 7133 
EOF
